[VALIDATOR STDOUT]
Checking plan: /home/jfan5/Safety-gen/runs/benchmark/optic/blocksworld_20260205_112402/blocksworld/optic_results/bw_ops3_n18_seed18001.plan
Plan executed successfully - checking goal
Plan valid
Final value: 56 

Successful plans:
Value: 56
 /home/jfan5/Safety-gen/runs/benchmark/optic/blocksworld_20260205_112402/blocksworld/optic_results/bw_ops3_n18_seed18001.plan 56
